c FILE /home/rafael/Documents/HappySet/MIHS/inputs/happygen/output/graph_d_regular_k2_p0.1_v50_20241127_082540.txt
c SOURCE This is a d-regular graph formed for the happy graph colouring problem.
c DESCRIPTION It was generated using the problem generator of Rhyd Lewis
c
c GRAPH STATS
c Seed                             = -1837622524
c Number of Nodes                  = 50
c Number of colours k              = 2
c Number of pre-assignments        = 5
c Degree of all vertices           = 6
c Density                          = 0.122449
c 
c The degrees of nodes 1 to 50, respectively, are as follows 
c [6, 6, 6, 6, 6, 6, 6, 6, 6, 6, 6, 6, 6, 6, 6, 6, 6, 6, 6, 6, 6, 6, 6, 6, 6, 6, 
c  6, 6, 6, 6, 6, 6, 6, 6, 6, 6, 6, 6, 6, 6, 6, 6, 6, 6, 6, 6, 6, 6, 6, 6] 
c  
p edge 50 150 2
e 1 10
e 1 16
e 1 19
e 1 23
e 1 25
e 1 45
e 2 5
e 2 12
e 2 29
e 2 35
e 2 36
e 2 49
e 3 15
e 3 17
e 3 22
e 3 28
e 3 37
e 3 38
e 4 13
e 4 17
e 4 20
e 4 25
e 4 34
e 4 45
e 5 17
e 5 26
e 5 36
e 5 43
e 5 44
e 6 30
e 6 33
e 6 35
e 6 40
e 6 43
e 6 45
e 7 8
e 7 14
e 7 39
e 7 41
e 7 48
e 7 50
e 8 9
e 8 11
e 8 30
e 8 34
e 8 40
e 9 22
e 9 29
e 9 36
e 9 38
e 9 47
e 10 15
e 10 19
e 10 21
e 10 26
e 10 46
e 11 16
e 11 20
e 11 23
e 11 32
e 11 37
e 12 18
e 12 25
e 12 28
e 12 30
e 12 31
e 13 28
e 13 30
e 13 32
e 13 42
e 13 47
e 14 24
e 14 27
e 14 38
e 14 44
e 14 45
e 15 16
e 15 17
e 15 19
e 15 23
e 16 29
e 16 32
e 16 45
e 17 33
e 17 40
e 18 29
e 18 31
e 18 38
e 18 40
e 18 50
e 19 24
e 19 26
e 19 49
e 20 24
e 20 42
e 20 43
e 20 46
e 21 25
e 21 27
e 21 37
e 21 43
e 21 50
e 22 39
e 22 40
e 22 42
e 22 48
e 23 25
e 23 34
e 23 40
e 24 26
e 24 27
e 24 30
e 25 48
e 26 31
e 26 41
e 27 32
e 27 33
e 27 41
e 28 37
e 28 39
e 28 50
e 29 46
e 29 49
e 30 46
e 31 32
e 31 42
e 31 49
e 32 49
e 33 34
e 33 41
e 33 46
e 34 35
e 34 46
e 35 36
e 35 42
e 35 44
e 36 38
e 36 48
e 37 47
e 37 50
e 38 44
e 39 42
e 39 43
e 39 47
e 41 43
e 41 48
e 44 45
e 44 48
e 47 49
e 47 50
n 2 1
n 18 1
n 20 2
n 25 1
n 33 1
